p edge 30 44 10
v 1 5
v 4 21 22 24 29
v 2 3 12
v 4 8 15 16 28
v 4 1 9 20 25
v 4 6 7 17 23
v 2 14 18
v 3 11 19 30
v 3 2 4 27
v 3 10 13 26
e 1 5
e 1 21
e 2 15
e 2 19
e 2 21
e 2 25
e 3 9
e 3 23
e 3 25
e 4 11
e 4 27
e 4 28
e 5 8
e 5 12
e 5 26
e 6 26
e 7 8
e 8 19
e 9 11
e 9 20
e 9 25
e 11 18
e 11 29
e 11 30
e 13 17
e 14 19
e 15 16
e 15 18
e 15 27
e 16 19
e 16 21
e 18 22
e 18 26
e 18 27
e 19 26
e 20 25
e 20 28
e 20 29
e 21 26
e 22 28
e 23 25
e 23 30
e 26 27
e 27 28
